
Gurobi 13.0.1 (linux64) logging started Sat Mar 21 23:45:58 2026

Set parameter LogFile to value "logs/75B_6F_robust_gamma_0d5_theta_0d05199999999999999_2026-03-21_23h44m58s.log"
Set parameter MIPGap to value 0.005
Set parameter OptimalityTol to value 0.005
Gurobi Optimizer version 13.0.1 build v13.0.1rc0 (linux64 - "openSUSE Tumbleweed")

CPU model: Intel(R) Core(TM) i7-10610U CPU @ 1.80GHz, instruction set [SSE2|AVX|AVX2]
Thread count: 4 physical cores, 8 logical processors, using up to 8 threads

Non-default parameters:
TimeLimit  3600
SoftMemLimit  12
MIPGap  0.005
OptimalityTol  0.005

Optimize a model with 90326 rows, 1733346 columns and 5286408 nonzeros (Max)
Model fingerprint: 0xb90e9145
Model has 1665086 linear objective coefficients
Variable types: 23346 continuous, 1710000 integer (1710000 binary)
Coefficient statistics:
  Matrix range     [3e-05, 1e+05]
  Objective range  [1e+00, 3e+03]
  Bounds range     [1e+00, 1e+05]
  RHS range        [1e-02, 1e+05]

Presolve removed 46314 rows and 1252620 columns
Presolve time: 4.97s
Presolved: 44012 rows, 480726 columns, 1506877 nonzeros
Variable types: 11328 continuous, 469398 integer (469398 binary)
Found heuristic solution: objective -3.90470e+08
Deterministic concurrent LP optimizer: primal simplex, dual simplex, and barrier
Showing barrier log only...

Root barrier log...

Ordering time: 1.39s

Barrier statistics:
 AA' NZ     : 7.621e+05
 Factor NZ  : 6.411e+06 (roughly 260 MB of memory)
 Factor Ops : 1.809e+09 (less than 1 second per iteration)
 Threads    : 2

                  Objective                Residual
Iter       Primal          Dual         Primal    Dual     Compl     Time
   0  -1.43640279e+12  1.90875584e+09  2.08e+07 1.02e+03  8.71e+06     9s
   1  -1.90229044e+11  3.43684641e+09  2.76e+06 2.98e+02  1.17e+06    10s
   2  -1.35408346e+09  2.74823846e+09  2.08e+04 5.43e+01  1.16e+04    10s
   3  -3.31997010e+07  1.74513903e+09  3.89e+03 1.25e+01  3.01e+03    11s
   4   2.16749334e+08  6.34971769e+08  6.04e+02 1.48e+00  5.59e+02    11s
   5   2.48847807e+08  3.63238536e+08  1.75e+02 3.79e-01  1.51e+02    11s
   6   2.58795034e+08  2.88938503e+08  4.81e+01 8.79e-02  3.96e+01    11s
   7   2.61233286e+08  2.74291437e+08  1.72e+01 3.55e-02  1.62e+01    12s
   8   2.62396483e+08  2.67029007e+08  3.61e+00 1.06e-02  5.18e+00    12s
   9   2.62702713e+08  2.64869060e+08  7.94e-01 4.81e-03  2.25e+00    12s
  10   2.62827328e+08  2.63877396e+08  1.65e-01 2.27e-03  1.07e+00    13s
  11   2.62937397e+08  2.63483406e+08  1.81e-02 1.22e-03  5.56e-01    13s
  12   2.62987175e+08  2.63117513e+08  4.28e-04 2.52e-04  1.33e-01    14s
  13   2.62998508e+08  2.63049759e+08  9.53e-05 9.85e-05  5.22e-02    14s
  14   2.63001051e+08  2.63032249e+08  5.09e-05 5.99e-05  3.18e-02    14s
  15   2.63001986e+08  2.63021332e+08  3.65e-05 3.57e-05  1.97e-02    14s
  16   2.63003100e+08  2.63019549e+08  2.08e-05 3.18e-05  1.68e-02    15s
  17   2.63003895e+08  2.63014558e+08  1.18e-05 2.10e-05  1.09e-02    15s
  18   2.63004130e+08  2.63011270e+08  9.01e-06 1.37e-05  7.27e-03    16s
  19   2.63004217e+08  2.63008966e+08  7.97e-06 8.60e-06  4.84e-03    16s
  20   2.63004515e+08  2.63008122e+08  4.60e-06 6.73e-06  3.67e-03    16s
  21   2.63004703e+08  2.63007503e+08  2.54e-06 5.46e-06  2.85e-03    16s
  22   2.63004758e+08  2.63006844e+08  1.84e-06 4.06e-06  2.13e-03    17s
  23   2.63004797e+08  2.63006513e+08  1.43e-06 3.36e-06  1.75e-03    17s
  24   2.63004863e+08  2.63005977e+08  6.31e-07 2.18e-06  1.14e-03    18s
  25   2.63004885e+08  2.63005621e+08  3.84e-07 1.42e-06  7.51e-04    18s
  26   2.63004906e+08  2.63005419e+08  2.32e-07 9.89e-07  5.23e-04    18s
  27   2.63004922e+08  2.63005197e+08  1.23e-07 5.09e-07  2.80e-04    19s
  28   2.63004932e+08  2.63005144e+08  6.63e-08 3.96e-07  2.16e-04    19s
  29   2.63004936e+08  2.63005121e+08  5.87e-08 3.48e-07  1.89e-04    19s
  30   2.63004936e+08  2.63005081e+08  5.48e-08 2.68e-07  1.48e-04    20s
  31   2.63004938e+08  2.63005031e+08  9.05e-08 1.62e-07  9.44e-05    20s
  32   2.63004941e+08  2.63004993e+08  1.15e-07 8.54e-08  5.28e-05    20s
  33   2.63004944e+08  2.63004958e+08  4.93e-08 1.82e-08  1.36e-05    21s
  34   2.63004945e+08  2.63004952e+08  3.64e-08 7.05e-09  6.38e-06    21s
  35   2.63004946e+08  2.63004949e+08  1.08e-07 2.37e-09  2.40e-06    21s
  36   2.63004947e+08  2.63004947e+08  2.99e-08 3.08e-10  5.28e-07    22s
  37   2.63004947e+08  2.63004947e+08  1.63e-08 9.50e-11  6.26e-08    22s
  38   2.63004947e+08  2.63004947e+08  1.82e-07 7.32e-11  4.28e-09    23s

Barrier solved model in 38 iterations and 22.62 seconds (16.30 work units)
Optimal objective 2.63004947e+08


Root crossover log...

   13667 DPushes remaining with DInf 2.5771474e-01                23s
       0 DPushes remaining with DInf 0.0000000e+00                23s

   10574 PPushes remaining with PInf 2.3629207e-02                23s
       0 PPushes remaining with PInf 0.0000000e+00                25s

  Push phase complete: Pinf 0.0000000e+00, Dinf 1.3374943e+05     25s


Root simplex log...

Iteration    Objective       Primal Inf.    Dual Inf.      Time
   23808    2.6300495e+08   0.000000e+00   1.337493e+05     25s
   24546    2.6300495e+08   0.000000e+00   1.454759e+06     25s
   28605    2.6300495e+08   0.000000e+00   1.768134e+06     30s
   33033    2.6300495e+08   0.000000e+00   2.080446e+05     35s
   33892    2.6300495e+08   0.000000e+00   0.000000e+00     37s
Crossover time: 13.97 seconds (8.18 work units)
Concurrent spin time: 0.63s

Solved with barrier

Root relaxation: objective 2.630049e+08, 33892 iterations, 30.66 seconds (17.52 work units)

    Nodes    |    Current Node    |     Objective Bounds      |     Work
 Expl Unexpl |  Obj  Depth IntInf | Incumbent    BestBd   Gap | It/Node Time

     0     0 2.6300e+08    0 7803 -3.905e+08 2.6300e+08   167%     -   45s
H    0     0                    1.410773e+08 2.6300e+08  86.4%     -   47s
H    0     0                    2.267753e+08 2.6300e+08  16.0%     -   49s
H    0     0                    2.292523e+08 2.6300e+08  14.7%     -   53s
H    0     0                    2.292556e+08 2.6300e+08  14.7%     -   85s
H    0     0                    2.419390e+08 2.6300e+08  8.71%     -   90s
H    0     0                    2.419417e+08 2.6300e+08  8.71%     -  100s
     0     0 2.6300e+08    0 7087 2.4194e+08 2.6300e+08  8.71%     -  972s
H    0     0                    2.422539e+08 2.6300e+08  8.57%     - 1173s
H    0     0                    2.427662e+08 2.6300e+08  8.34%     - 1183s
H    0     0                    2.428818e+08 2.6300e+08  8.29%     - 1242s
H    0     0                    2.429323e+08 2.6300e+08  8.26%     - 1315s
H    0     0                    2.430571e+08 2.6300e+08  8.21%     - 1325s
H    0     0                    2.431504e+08 2.6300e+08  8.17%     - 1336s
H    0     0                    2.431504e+08 2.6300e+08  8.17%     - 1348s
H    0     0                    2.431504e+08 2.6300e+08  8.17%     - 1620s
     0     0 2.6300e+08    0 7335 2.4315e+08 2.6300e+08  8.17%     - 2294s
     0     0 2.6300e+08    0 7897 2.4315e+08 2.6300e+08  8.17%     - 2936s
H    0     0                    2.453812e+08 2.6300e+08  7.18%     - 2941s
H    0     0                    2.455400e+08 2.6300e+08  7.11%     - 2957s
H    0     0                    2.467536e+08 2.6300e+08  6.59%     - 2995s
H    0     0                    2.479776e+08 2.6300e+08  6.06%     - 3068s
H    0     0                    2.486427e+08 2.6300e+08  5.78%     - 3088s
H    0     0                    2.490052e+08 2.6300e+08  5.62%     - 3138s
H    0     0                    2.497085e+08 2.6300e+08  5.32%     - 3600s

Cutting planes:
  MIR: 11
  Flow cover: 37
  RLT: 2710

Explored 1 nodes (588539 simplex iterations) in 3600.22 seconds (4572.85 work units)
Thread count was 8 (of 8 available processors)

Solution count 10: 2.49709e+08 2.49005e+08 2.48643e+08 ... 2.4315e+08

Time limit reached
Best objective 2.497085376864e+08, best bound 2.630046778351e+08, gap 5.3247%
